param set_len = 56;
param target_sum = 16614077655;
param values := [1] 157183184 [2] 646068943 [3] 222734030 [4] 469912998 [5] 3347141 [6] 244418248 [7] 847947915 [8] 604388547 [9] 98348322 [10] 451805388 [11] 231990200 [12] 735935329 [13] 281162463 [14] 857426260 [15] 995567820 [16] 258148288 [17] 55177231 [18] 357072643 [19] 923028262 [20] 456126348 [21] 460243665 [22] 338012738 [23] 1042205354 [24] 134041690 [25] 389642885 [26] 1000837198 [27] 1038546504 [28] 434287520 [29] 574061502 [30] 553682990 [31] 333096801 [32] 1010602926 [33] 893326236 [34] 160278355 [35] 366427126 [36] 58676860 [37] 214732488 [38] 132843431 [39] 227090233 [40] 1007056071 [41] 932687758 [42] 497079120 [43] 872666928 [44] 825636753 [45] 1052123232 [46] 654999926 [47] 1070689022 [48] 631591723 [49] 846768541 [50] 324137855 [51] 395078427 [52] 16656138 [53] 965578855 [54] 381357729 [55] 242503715 [56] 1047681043 ;
